NAME : rat99.tsp
COMMENT : Optimal tour for rat99.tsp
TYPE : TOUR
DIMENSION : 99
Total Length: 1302.2743542220405
TOUR_SECTION
1
2
10
11
12
3
4
14
13
20
19
28
37
29
30
21
22
31
32
41
40
39
48
38
47
46
55
64
74
73
82
83
91
92
93
94
95
86
87
88
96
97
98
99
90
89
79
78
77
85
84
76
75
66
65
56
57
58
49
60
59
67
68
69
70
71
80
81
72
61
62
63
54
45
53
52
51
50
42
33
43
34
44
36
35
27
26
25
24
23
15
16
17
18
9
8
7
6
5
-1
EOF
